NAME: instance_692
TYPE: TSP
DIMENSION: 20
EDGE_WEIGHT_TYPE: EUC_2D
NODE_COORD_SECTION
0 86.70 64.09
1 86.41 49.59
2 2.93 44.43
3 42.88 2.84
4 99.62 90.32
5 35.11 14.14
6 59.31 93.99
7 40.90 35.77
8 65.72 34.23
9 0.87 47.99
10 96.38 12.03
11 90.86 63.06
12 77.61 60.61
13 3.52 2.52
14 99.42 93.33
15 93.87 26.96
16 89.61 81.97
17 64.13 12.80
18 47.61 87.62
19 52.92 83.92
EOF
